NAME /Users/henri/Research/solvers/instances/idol-instances/robust/collection/cbp_Subramanyam_et_al_2020/CapBud_N10_14/models/uncertain_technology_matrix/
ROWS
 N  OBJ
 L  capacity
 L  c_915
 L  c_916
 L  c_917
 L  c_918
 L  c_919
 L  c_920
 L  c_921
 L  c_922
 L  c_923
 L  c_924
COLUMNS
    MARKER    'MARKER'                 'INTORG'
    x_0        OBJ        -4.71966
    x_0        c_915      1
    x_0        capacity   0.943931
    x_1        OBJ        -6.07205
    x_1        c_916      1
    x_1        capacity   1.21441
    x_2        OBJ        -1.79588
    x_2        c_917      1
    x_2        capacity   0.359177
    x_3        OBJ        -5.47184
    x_3        c_918      1
    x_3        capacity   1.09437
    x_4        OBJ        -7.38831
    x_4        c_919      1
    x_4        capacity   1.47766
    x_5        OBJ        -6.67418
    x_5        c_920      1
    x_5        capacity   1.33484
    x_6        OBJ        -6.30746
    x_6        c_921      1
    x_6        capacity   1.26149
    x_7        OBJ        -1.20432
    x_7        c_922      1
    x_7        capacity   0.240864
    x_8        OBJ        -9.5639
    x_8        c_923      1
    x_8        capacity   1.91278
    x_9        OBJ        -1.40917
    x_9        c_924      1
    x_9        capacity   0.281834
    y_0        OBJ        -3.77573
    y_0        c_915      1
    y_0        capacity   0.943931
    y_1        OBJ        -4.85764
    y_1        c_916      1
    y_1        capacity   1.21441
    y_2        OBJ        -1.43671
    y_2        c_917      1
    y_2        capacity   0.359177
    y_3        OBJ        -4.37747
    y_3        c_918      1
    y_3        capacity   1.09437
    y_4        OBJ        -5.91065
    y_4        c_919      1
    y_4        capacity   1.47766
    y_5        OBJ        -5.33934
    y_5        c_920      1
    y_5        capacity   1.33484
    y_6        OBJ        -5.04597
    y_6        c_921      1
    y_6        capacity   1.26149
    y_7        OBJ        -0.963458
    y_7        c_922      1
    y_7        capacity   0.240864
    y_8        OBJ        -7.65112
    y_8        c_923      1
    y_8        capacity   1.91278
    y_9        OBJ        -1.12734
    y_9        c_924      1
    y_9        capacity   0.281834
    MARKER    'MARKER'                 'INTEND'
RHS
    RHS       capacity   25.3034
    RHS       c_915      1
    RHS       c_916      1
    RHS       c_917      1
    RHS       c_918      1
    RHS       c_919      1
    RHS       c_920      1
    RHS       c_921      1
    RHS       c_922      1
    RHS       c_923      1
    RHS       c_924      1
BOUNDS
 LI BND       x_0        0
 UI BND       x_0        1
 LI BND       x_1        0
 UI BND       x_1        1
 LI BND       x_2        0
 UI BND       x_2        1
 LI BND       x_3        0
 UI BND       x_3        1
 LI BND       x_4        0
 UI BND       x_4        1
 LI BND       x_5        0
 UI BND       x_5        1
 LI BND       x_6        0
 UI BND       x_6        1
 LI BND       x_7        0
 UI BND       x_7        1
 LI BND       x_8        0
 UI BND       x_8        1
 LI BND       x_9        0
 UI BND       x_9        1
 LI BND       y_0        0
 UI BND       y_0        1
 LI BND       y_1        0
 UI BND       y_1        1
 LI BND       y_2        0
 UI BND       y_2        1
 LI BND       y_3        0
 UI BND       y_3        1
 LI BND       y_4        0
 UI BND       y_4        1
 LI BND       y_5        0
 UI BND       y_5        1
 LI BND       y_6        0
 UI BND       y_6        1
 LI BND       y_7        0
 UI BND       y_7        1
 LI BND       y_8        0
 UI BND       y_8        1
 LI BND       y_9        0
 UI BND       y_9        1
ENDATA
